18231 : 750 13188 
750 : 2849 18231 
6154 : 14836 2172 
22046 : 17381 
17381 : 22046 4300 
13188 : 18231 14836 
11999 : 21120 4300 
8257 : 4300 18895 
15654 : 2849 2112 
2849 : 15654 750 
19437 : 14981 
18895 : 8257 
2112 : 15654 14981 
14836 : 13188 6154 
14981 : 2112 19437 
2172 : 21120 6154 
4300 : 17381 8257 11999 
21120 : 2172 11999 
19437 2849 18895 2172 22046 
